
Gurobi 9.1.2 (win64, Java) logging started Fri Nov 12 00:55:37 2021

Academic license - for non-commercial use only - expires 2022-10-30
Gurobi Optimizer version 9.1.2 build v9.1.2rc0 (win64)
Thread count: 6 physical cores, 12 logical processors, using up to 12 threads
Optimize a model with 30 rows, 200 columns and 400 nonzeros
Model fingerprint: 0xaa390fb6
Variable types: 0 continuous, 200 integer (200 binary)
Coefficient statistics:
  Matrix range     [1e+00, 1e+03]
  Objective range  [2e+02, 9e+02]
  Bounds range     [1e+00, 1e+00]
  RHS range        [1e+00, 9e+02]
Found heuristic solution: objective 4136.0000000
Presolve removed 7 rows and 108 columns
Presolve time: 0.00s
Presolved: 23 rows, 92 columns, 183 nonzeros
Variable types: 0 continuous, 92 integer (92 binary)
Presolve removed 0 rows and 8 columns
Presolved: 23 rows, 84 columns, 167 nonzeros


Root relaxation: objective 5.058799e+03, 35 iterations, 0.00 seconds

    Nodes    |    Current Node    |     Objective Bounds      |     Work
 Expl Unexpl |  Obj  Depth IntInf | Incumbent    BestBd   Gap | It/Node Time

     0     0 5058.79908    0    5 4136.00000 5058.79908  22.3%     -    0s
H    0     0                    4940.0000000 5058.79908  2.40%     -    0s
     0     0 4967.10314    0   11 4940.00000 4967.10314  0.55%     -    0s
     0     0 4957.65803    0    5 4940.00000 4957.65803  0.36%     -    0s
H    0     0                    4955.0000000 4957.65803  0.05%     -    0s
     0     0     cutoff    0      4955.00000 4955.00000  0.00%     -    0s

Cutting planes:
  Gomory: 4
  Cover: 3
  Clique: 2
  MIR: 2
  StrongCG: 1
  RLT: 1

Explored 1 nodes (75 simplex iterations) in 0.05 seconds
Thread count was 12 (of 12 available processors)

Solution count 3: 4955 4940 4136 

Optimal solution found (tolerance 1.00e-12)
Best objective 4.955000000000e+03, best bound 4.955000000000e+03, gap 0.0000%
